experiments/eusolverbv/8/TrainGenes/00011100000010011111110101100011010000000000/299_.sl

(set-logic BV)

(define-fun shr1 ((x (BitVec 64))) (BitVec 64) (bvlshr x #x0000000000000001))
(define-fun shr4 ((x (BitVec 64))) (BitVec 64) (bvlshr x #x0000000000000004))
(define-fun shr16 ((x (BitVec 64))) (BitVec 64) (bvlshr x #x0000000000000010))
(define-fun shl1 ((x (BitVec 64))) (BitVec 64) (bvshl x #x0000000000000001))
(define-fun if0 ((x (BitVec 64)) (y (BitVec 64)) (z (BitVec 64))) (BitVec 64) (ite (= x #x0000000000000001) y z))
(define-fun func24  ((A (BitVec 64)) (B (BitVec 64)) (C (BitVec 64)) (D (BitVec 64)) ) (BitVec 64) (bvand (bvlshr (bvlshr C  D ) B ) A ))
(define-fun func25  ((A (BitVec 64)) (B (BitVec 64)) (C (BitVec 64)) ) (BitVec 64) (bvand (bvlshr B  C ) A ))
(define-fun func26  ((A (BitVec 64)) (B (BitVec 64)) ) (BitVec 64) (bvand (bvlshr B  #x0000000000000001 ) A ))
(define-fun func27  ((A (BitVec 64)) (B (BitVec 64)) ) (BitVec 64) (bvand (bvlshr B  #x0000000000000010 ) A ))
(define-fun func28  ((A (BitVec 64)) (B (BitVec 64)) ) (BitVec 64) (bvand (bvlshr B  #x0000000000000004 ) A ))
(define-fun func29  ((A (BitVec 64)) (B (BitVec 64)) ) (BitVec 64) (bvand (bvlshr A  B ) #x0000000000000001 ))
(define-fun func30  ((A (BitVec 64)) ) (BitVec 64) (bvand A  #x0000000000000001 ))
(define-fun func31  ((A (BitVec 64)) (B (BitVec 64)) (C (BitVec 64)) (D (BitVec 64)) ) (BitVec 64) (bvlshr (bvlshr (bvlshr C  D ) B ) A ))
(define-fun func32  ((A (BitVec 64)) (B (BitVec 64)) (C (BitVec 64)) ) (BitVec 64) (bvlshr (bvlshr (bvlshr C  #x0000000000000010 ) B ) A ))
(define-fun func33  ((A (BitVec 64)) (B (BitVec 64)) (C (BitVec 64)) ) (BitVec 64) (bvlshr (bvlshr (bvlshr B  C ) A ) #x0000000000000004 ))
(define-fun func34  ((A (BitVec 64)) (B (BitVec 64)) (C (BitVec 64)) ) (BitVec 64) (bvlshr (bvlshr (bvlshr B  C ) #x0000000000000004 ) A ))
(define-fun func35  ((A (BitVec 64)) (B (BitVec 64)) (C (BitVec 64)) ) (BitVec 64) (bvlshr (bvlshr B  C ) A ))
(define-fun func36  ((A (BitVec 64)) (B (BitVec 64)) ) (BitVec 64) (bvlshr (bvlshr B  #x0000000000000010 ) A ))
(define-fun func37  ((A (BitVec 64)) (B (BitVec 64)) ) (BitVec 64) (bvlshr (bvlshr B  #x0000000000000004 ) A ))
(define-fun func38  ((A (BitVec 64)) (B (BitVec 64)) ) (BitVec 64) (bvlshr (bvlshr B  #x0000000000000001 ) A ))
(define-fun func39  ((A (BitVec 64)) (B (BitVec 64)) ) (BitVec 64) (bvlshr (bvlshr A  B ) #x0000000000000001 ))
(define-fun func40  ((A (BitVec 64)) (B (BitVec 64)) ) (BitVec 64) (bvlshr (bvlshr A  B ) #x0000000000000004 ))
(define-fun func41  ((A (BitVec 64)) (B (BitVec 64)) ) (BitVec 64) (bvlshr A  B ))
(define-fun func42  ((A (BitVec 64)) (B (BitVec 64)) (C (BitVec 64)) ) (BitVec 64) (bvlshr (bvshl B  C ) A ))
(define-fun func43  ((A (BitVec 64)) (B (BitVec 64)) ) (BitVec 64) (bvlshr (bvshl B  #x0000000000000001 ) A ))
(define-fun func44  ((A (BitVec 64)) (B (BitVec 64)) ) (BitVec 64) (bvlshr (bvshl A  B ) #x0000000000000004 ))
(define-fun func45  ((A (BitVec 64)) (B (BitVec 64)) (C (BitVec 64)) ) (BitVec 64) (bvlshr (bvadd B  C ) A ))
(define-fun func46  ((A (BitVec 64)) (B (BitVec 64)) ) (BitVec 64) (bvlshr (bvnot B ) A ))
(define-fun func47  ((A (BitVec 64)) ) (BitVec 64) (bvlshr (bvnot A ) #x0000000000000010 ))
(define-fun func48  ((A (BitVec 64)) (B (BitVec 64)) (C (BitVec 64)) ) (BitVec 64) (bvor (bvlshr B  C ) A ))
(define-fun func49  ((A (BitVec 64)) ) (BitVec 64) (bvor A  #x0000000000000001 ))
(define-fun func50  ((A (BitVec 64)) (B (BitVec 64)) (C (BitVec 64)) ) (BitVec 64) (bvshl (bvlshr B  C ) A ))
(define-fun func51  ((A (BitVec 64)) (B (BitVec 64)) ) (BitVec 64) (bvshl (bvlshr B  #x0000000000000001 ) A ))
(define-fun func52  ((A (BitVec 64)) (B (BitVec 64)) ) (BitVec 64) (bvshl (bvlshr A  B ) #x0000000000000001 ))
(define-fun func54  ((A (BitVec 64)) (B (BitVec 64)) (C (BitVec 64)) ) (BitVec 64) (bvadd (bvlshr B  C ) A ))
(define-fun func55  ((A (BitVec 64)) ) (BitVec 64) (bvadd A  #x0000000000000001 ))
(define-fun func56  ((A (BitVec 64)) (B (BitVec 64)) (C (BitVec 64)) ) (BitVec 64) (bvadd (bvshl B  C ) A ))
(define-fun func57  ((A (BitVec 64)) (B (BitVec 64)) ) (BitVec 64) (bvadd (bvshl B  #x0000000000000001 ) A ))
(define-fun func58  ((A (BitVec 64)) ) (BitVec 64) (bvnot (bvshl A  #x0000000000000001 )))
(synth-fun f ( (x (BitVec 64))) (BitVec 64)
(
(Start (BitVec 64) (
   #x0000000000000000
   #x0000000000000001
   x
   (func27 Start Start)
   (func28 Start Start)
   (func29 Start Start)
   (func36 Start Start)
   (func39 Start Start)
   (func40 Start Start)
   (func41 Start Start)
   (func42 Start Start Start)
   (func43 Start Start)
   (func44 Start Start)
   (func45 Start Start Start)
   (func47 Start)
   (func49 Start)
   (func50 Start Start Start)
   (func55 Start)
   (func56 Start Start Start)
   (func58 Start)
   (bvnot Start)
   (shl1 Start)
   (shr1 Start)
   (shr4 Start)
   (shr16 Start)
   (bvand Start Start)
   (bvor Start Start)
   (bvxor Start Start)
   (bvadd Start Start)
   (if0 Start Start Start)
))
))
(constraint (= (f #x36af3c0669cd72d0) #x36af3c0669cd72d1))
(constraint (= (f #x59de552d8888d9ba) #x59de552d8888d9bb))
(constraint (= (f #x19738855b999764a) #x19738855b999764b))
(constraint (= (f #x05739610cd6cb2aa) #x05739610cd6cb2ab))
(constraint (= (f #x41861401bf6b4020) #x41861401bf6b4021))
(constraint (= (f #xf0f0f0f0f0f0f0f2) #xf0f0f0f0f0f0f0f3))
(constraint (= (f #x0000000000000001) #x0000000000000002))
(constraint (= (f #x2044759e965bd886) #x00004088eb3d2cb7))
(constraint (= (f #xfbb9b358d2a99215) #x0000f77366b1a553))
(constraint (= (f #xbeb31e8f6d552f54) #x00007d663d1edaaa))
(constraint (= (f #xbf422c9eb8ca8f44) #x00007e84593d7195))
(constraint (= (f #xb1980f847ae75314) #x000063301f08f5ce))
(constraint (= (f #xffff80003fffdfff) #x0000ffff00007fff))
(constraint (= (f #x44a629b392b496a2) #x44a629b392b496a3))
(constraint (= (f #x64436df2b74b05d6) #x0000c886dbe56e96))
(constraint (= (f #xa93287998df65eb8) #xa93287998df65eb9))
(constraint (= (f #x41f47859eb5e8515) #x000083e8f0b3d6bd))
(constraint (= (f #x5afd775260806086) #x0000b5faeea4c100))
(constraint (= (f #xde622b2191f7d7f5) #x0000bcc4564323ef))
(constraint (= (f #x50dc656da28deab1) #x50dc656da28deab2))
(constraint (= (f #xa0c233b01aa9c790) #xa0c233b01aa9c791))
(constraint (= (f #x05810d19555930d0) #x05810d19555930d1))
(constraint (= (f #x24096ab12338815a) #x24096ab12338815b))
(constraint (= (f #xffff80003fffdfff) #x0000ffff00007fff))
(constraint (= (f #x60550f2738aaaeb3) #x60550f2738aaaeb4))
(constraint (= (f #xd174b2b89a366473) #xd174b2b89a366474))
(constraint (= (f #xaf7b5864456b1b73) #xaf7b5864456b1b74))
(check-synth)
