experiments/eusolverbv/8/TrainGenes/00011100000010011111110101100011010000000000/299_.out
(define-fun f ((x (BitVec 64))) (BitVec 64)
     (if0 (func28 #x0000000000000001 (shr1 x)) (if0 (func27 #x0000000000000001 (shr4 x)) (if0 (func27 #x0000000000000001 x) (func47 (func58 x)) (func55 x)) (func55 x)) (if0 (func27 #x0000000000000001 (shr1 x)) (func47 (func58 x)) (if0 x (func55 #x0000000000000001) (if0 (func28 #x0000000000000001 (func58 x)) (if0 (func27 #x0000000000000001 x) (if0 (func29 x #x0000000000000000) (func47 (func58 x)) (if0 (func27 #x0000000000000001 (func47 x)) (func49 x) (if0 (func28 #x0000000000000001 (shr4 x)) (func47 (func58 x)) (func49 x)))) (func47 (func58 x))) (func49 x))))))
3.446653824299574
